3213.1
0 12 90 14 25 18 20 22 13 40 37 95 3 7 8 9 1 0
0 31 32 38 46 19 15 23 2 53 0
0 28 30 36 34 33 27 26 51 0
0 45 48 41 39 29 62 21 10 0
0 35 49 42 43 44 55 56 0
0 65 70 68 52 47 59 58 72 75 77 50 0
0 81 85 82 79 76 80 73 67 66 86 91 87 69 92 24 16 11 60 63 61 54 0
0 17 83 74 71 0
0 89 88 84 98 99 78 4 0
0 93 94 5 0
0 96 97 64 57 100 6 0
